c read Graph
c width = 42
c time = 408 ms
c width = 5
c time = 512 ms
c width = 5
c time = 3655 ms
s td 51 6 55
b 1 1 2 12
b 2 2 3 12 13
b 3 9 10 21 22
b 4 3 12 13 23
b 5 9 21 22 33
b 6 23 34 35 46
b 7 33 43 44 54
b 8 23 35 46 47
b 9 33 43 53 54
b 10 3 4 5 15
b 11 5 6 7 17
b 12 7 8 9 19
b 13 3 13 14 23 24
b 14 9 20 21 32 33
b 15 23 24 35 36 47
b 16 32 33 42 43 53
b 17 23 24 36 47 48
b 18 38 48 49 50
b 19 40 50 51 52
b 20 32 33 42 52 53
b 21 5 15 16 17 27
b 22 7 17 18 19 29
b 23 3 14 23 24 36 48
b 24 3 14 24 25 36 48
b 25 3 14 15 25 36 48
b 26 3 5 15 25 36 48
b 27 5 15 25 26 36 48
b 28 5 15 26 36 37 48
b 29 5 15 26 27 37 48
b 30 5 15 17 27 37 48
b 31 5 17 27 37 38 48
b 32 5 7 17 27 38 48
b 33 7 17 27 28 38 48
b 34 28 38 39 40 50
b 35 7 17 28 38 48 50
b 36 7 17 28 38 40 50
b 37 7 17 28 29 40 50
b 38 7 17 19 29 40 50
b 39 7 9 19 29 40 50
b 40 9 19 29 30 40 50
b 41 9 19 20 30 40 50
b 42 20 30 31 32 42
b 43 30 40 41 42 52
b 44 9 20 30 40 50 52
b 45 9 20 32 33 42 52
b 46 9 20 30 32 42 52
b 47 9 20 30 40 42 52
b 48 30 40 42 52
b 49 44 54 55
b 50 34 45 46
b 51 10 11 22
1 2
2 4
3 51
3 5
4 13
5 14
6 50
6 8
7 49
7 9
8 15
9 16
10 26
11 32
12 39
13 23
14 45
15 17
16 20
17 23
18 35
19 44
20 45
21 30
22 38
23 24
24 25
25 26
26 27
27 28
28 29
29 30
30 31
31 32
32 33
33 35
34 36
35 36
36 37
37 38
38 39
39 40
40 41
41 44
42 46
43 48
44 47
45 46
46 47
47 48
